c 1 _r
c 2 _r_1
c 3 _r_1_10_11
c 4 _r_1_10_12
c 5 _r_1_10_13
c 6 _r_2
c 7 _r_2_6
c 8 _r_2_6_14_15
c 9 _r_2_6_14_16
c 10 _r_2_6_14_17
c 11 _r_2_6_14_18
c 12 _r_2_7
c 13 _r_2_7_19
c 14 _r_2_7_19_22_23
c 15 _r_2_7_19_22_27
c 16 _r_2_7_20
c 17 _r_2_7_20_28_29
c 18 _r_2_7_20_28_30
c 19 _r_2_7_20_28_31
c 20 _r_2_7_21
c 21 _r_2_7_21_32_33
c 22 _r_2_7_21_32_34
c 23 _r_2_7_21_32_35
c 24 _r_2_8
c 25 _r_2_8_36_37
c 26 _r_2_8_36_38
c 27 _r_2_39
c 28 _r_2_39_42_43
c 29 _r_2_39_42_44
c 30 _r_2_39_42_45
c 31 _r_2_39_42_46
c 32 _r_2_40
c 33 _r_2_40_47_48
c 34 _r_2_40_47_49
c 35 _r_2_40_47_50
c 36 _r_2_40_47_51
c 37 _r_2_41
c 38 _r_2_41_52_53
c 39 _r_2_41_52_54
c 40 _r_2_41_52_55
c 41 _r_2_41_52_56
c 42 _r_3
c 43 _r_3_57
c 44 _r_3_57_58
c 45 _r_4
c 46 _r_4_59_60
c 47 _r_4_59_61
c 48 _r_4_59_62
c 49 _r_5
c 50 _r_5_63_64
c 51 _r_5_63_65
c 52 _r_5_63_66
p cnf 52 119
1 0
-2 1 0
-1 2 0
-6 1 0
-1 6 0
-42 1 0
-1 42 0
-45 1 0
-1 45 0
-49 1 0
-3 2 0
-4 2 0
-5 2 0
-2 3 4 5 0
-3 -4 0
-3 -5 0
-4 -5 0
-7 6 0
-6 7 0
-12 6 0
-6 12 0
-24 6 0
-6 24 0
-27 6 0
-6 27 0
-32 6 0
-6 32 0
-37 6 0
-6 37 0
-43 42 0
-42 43 0
-46 45 0
-47 45 0
-48 45 0
-45 46 47 48 0
-46 -47 0
-46 -48 0
-47 -48 0
-50 49 0
-51 49 0
-52 49 0
-49 50 51 52 0
-50 -51 0
-50 -52 0
-51 -52 0
-8 7 0
-9 7 0
-10 7 0
-11 7 0
-7 8 9 10 11 0
-8 -9 0
-8 -10 0
-8 -11 0
-9 -10 0
-9 -11 0
-10 -11 0
-13 12 0
-12 13 0
-16 12 0
-12 16 0
-20 12 0
-12 20 0
-25 24 0
-26 24 0
-24 25 26 0
-25 -26 0
-28 27 0
-29 27 0
-30 27 0
-31 27 0
-27 28 29 30 31 0
-28 -29 0
-28 -30 0
-28 -31 0
-29 -30 0
-29 -31 0
-30 -31 0
-33 32 0
-34 32 0
-35 32 0
-36 32 0
-32 33 34 35 36 0
-33 -34 0
-33 -35 0
-33 -36 0
-34 -35 0
-34 -36 0
-35 -36 0
-38 37 0
-39 37 0
-40 37 0
-41 37 0
-37 38 39 40 41 0
-38 -39 0
-38 -40 0
-38 -41 0
-39 -40 0
-39 -41 0
-40 -41 0
-44 43 0
-43 44 0
-14 13 0
-15 13 0
-13 14 15 0
-14 -15 0
-17 16 0
-18 16 0
-19 16 0
-16 17 18 19 0
-17 -18 0
-17 -19 0
-18 -19 0
-21 20 0
-22 20 0
-23 20 0
-20 21 22 23 0
-21 -22 0
-21 -23 0
-22 -23 0
